
(set-logic BV)

(define-fun shr1 ((x (BitVec 64))) (BitVec 64) (bvlshr x #x0000000000000001))
(define-fun shr4 ((x (BitVec 64))) (BitVec 64) (bvlshr x #x0000000000000004))
(define-fun shr16 ((x (BitVec 64))) (BitVec 64) (bvlshr x #x0000000000000010))
(define-fun shl1 ((x (BitVec 64))) (BitVec 64) (bvshl x #x0000000000000001))
(define-fun if0 ((x (BitVec 64)) (y (BitVec 64)) (z (BitVec 64))) (BitVec 64) (ite (= x #x0000000000000001) y z))
(define-fun func23  ((A (BitVec 64)) (B (BitVec 64)) (C (BitVec 64)) (D (BitVec 64)) ) (BitVec 64) (bvand (bvlshr (bvlshr C  D ) B ) A ))
(define-fun func24  ((A (BitVec 64)) (B (BitVec 64)) (C (BitVec 64)) ) (BitVec 64) (bvand (bvlshr B  C ) A ))
(define-fun func25  ((A (BitVec 64)) (B (BitVec 64)) ) (BitVec 64) (bvand (bvlshr B  #x0000000000000001 ) A ))
(define-fun func26  ((A (BitVec 64)) (B (BitVec 64)) ) (BitVec 64) (bvand (bvlshr B  #x0000000000000010 ) A ))
(define-fun func27  ((A (BitVec 64)) (B (BitVec 64)) ) (BitVec 64) (bvand (bvlshr B  #x0000000000000004 ) A ))
(define-fun func28  ((A (BitVec 64)) (B (BitVec 64)) ) (BitVec 64) (bvand (bvlshr A  B ) #x0000000000000001 ))
(define-fun func29  ((A (BitVec 64)) ) (BitVec 64) (bvand A  #x0000000000000001 ))
(define-fun func30  ((A (BitVec 64)) (B (BitVec 64)) (C (BitVec 64)) (D (BitVec 64)) ) (BitVec 64) (bvlshr (bvlshr (bvlshr C  D ) B ) A ))
(define-fun func31  ((A (BitVec 64)) (B (BitVec 64)) (C (BitVec 64)) ) (BitVec 64) (bvlshr (bvlshr (bvlshr C  #x0000000000000010 ) B ) A ))
(define-fun func32  ((A (BitVec 64)) (B (BitVec 64)) (C (BitVec 64)) ) (BitVec 64) (bvlshr (bvlshr B  C ) A ))
(define-fun func33  ((A (BitVec 64)) (B (BitVec 64)) ) (BitVec 64) (bvlshr (bvlshr B  #x0000000000000010 ) A ))
(define-fun func34  ((A (BitVec 64)) (B (BitVec 64)) ) (BitVec 64) (bvlshr (bvlshr B  #x0000000000000004 ) A ))
(define-fun func35  ((A (BitVec 64)) (B (BitVec 64)) ) (BitVec 64) (bvlshr (bvlshr B  #x0000000000000001 ) A ))
(define-fun func36  ((A (BitVec 64)) (B (BitVec 64)) ) (BitVec 64) (bvlshr (bvlshr A  B ) #x0000000000000001 ))
(define-fun func37  ((A (BitVec 64)) (B (BitVec 64)) ) (BitVec 64) (bvlshr (bvlshr A  B ) #x0000000000000004 ))
(define-fun func38  ((A (BitVec 64)) (B (BitVec 64)) ) (BitVec 64) (bvlshr A  B ))
(define-fun func39  ((A (BitVec 64)) (B (BitVec 64)) (C (BitVec 64)) ) (BitVec 64) (bvlshr (bvshl B  C ) A ))
(define-fun func40  ((A (BitVec 64)) (B (BitVec 64)) ) (BitVec 64) (bvlshr (bvshl B  #x0000000000000001 ) A ))
(define-fun func41  ((A (BitVec 64)) (B (BitVec 64)) (C (BitVec 64)) ) (BitVec 64) (bvlshr (bvadd B  C ) A ))
(define-fun func42  ((A (BitVec 64)) (B (BitVec 64)) ) (BitVec 64) (bvlshr (bvnot B ) A ))
(define-fun func43  ((A (BitVec 64)) ) (BitVec 64) (bvlshr (bvnot A ) #x0000000000000010 ))
(define-fun func44  ((A (BitVec 64)) (B (BitVec 64)) (C (BitVec 64)) ) (BitVec 64) (bvor (bvlshr B  C ) A ))
(define-fun func45  ((A (BitVec 64)) ) (BitVec 64) (bvor A  #x0000000000000001 ))
(define-fun func46  ((A (BitVec 64)) (B (BitVec 64)) (C (BitVec 64)) ) (BitVec 64) (bvshl (bvlshr B  C ) A ))
(define-fun func47  ((A (BitVec 64)) (B (BitVec 64)) ) (BitVec 64) (bvshl (bvlshr B  #x0000000000000001 ) A ))
(define-fun func48  ((A (BitVec 64)) (B (BitVec 64)) ) (BitVec 64) (bvshl (bvlshr A  B ) #x0000000000000001 ))
(define-fun func50  ((A (BitVec 64)) (B (BitVec 64)) ) (BitVec 64) (bvshl (bvnot B ) A ))
(define-fun func51  ((A (BitVec 64)) ) (BitVec 64) (bvshl (bvnot A ) #x0000000000000001 ))
(define-fun func52  ((A (BitVec 64)) (B (BitVec 64)) (C (BitVec 64)) ) (BitVec 64) (bvadd (bvlshr B  C ) A ))
(define-fun func53  ((A (BitVec 64)) ) (BitVec 64) (bvadd A  #x0000000000000001 ))
(define-fun func54  ((A (BitVec 64)) (B (BitVec 64)) (C (BitVec 64)) ) (BitVec 64) (bvadd (bvshl B  C ) A ))
(define-fun func55  ((A (BitVec 64)) (B (BitVec 64)) ) (BitVec 64) (bvadd (bvshl B  #x0000000000000001 ) A ))
(define-fun func56  ((A (BitVec 64)) ) (BitVec 64) (bvnot (bvshl A  #x0000000000000001 )))
(synth-fun f ( (x (BitVec 64))) (BitVec 64)
(
(Start (BitVec 64) (
   #x0000000000000000
   #x0000000000000001
   x
   (func23 Start Start Start Start)
   (func27 Start Start)
   (func28 Start Start)
   (func31 Start Start Start)
   (func34 Start Start)
   (func37 Start Start)
   (func38 Start Start)
   (func40 Start Start)
   (func41 Start Start Start)
   (func42 Start Start)
   (func44 Start Start Start)
   (func45 Start)
   (func46 Start Start Start)
   (func47 Start Start)
   (func48 Start Start)
   (func51 Start)
   (func53 Start)
   (func55 Start Start)
   (func56 Start)
   (shl1 Start)
   (shr1 Start)
   (bvand Start Start)
   (bvor Start Start)
   (bvxor Start Start)
   (if0 Start Start Start)
))
))
(constraint (= (f #x9b3e7e38fc7572de) #x367cfc71f8eae5bc))
(constraint (= (f #xe3dd279fa29cdfdc) #xc7ba4f3f4539bfb8))
(constraint (= (f #x730b59a5800df8d6) #xe616b34b001bf1ac))
(constraint (= (f #x8820034ac708c9f0) #x104006958e1193e0))
(constraint (= (f #x912e31f3b85cc198) #x225c63e770b98330))
(constraint (= (f #xfffffffffffffff8) #xfffffffffffffff0))
(constraint (= (f #x131a0d018b31676f) #x021008010220464e))
(constraint (= (f #x50ef7b7137ce767d) #x00ce7260278c6478))
(constraint (= (f #x7ed0a5982b8c74b3) #x7c80011003086022))
(constraint (= (f #x83a9bbacedb84f05) #x03013308c9300e00))
(constraint (= (f #xa1d9609ac1757067) #x0190401080606046))
(constraint (= (f #xfffffffffffffffa) #xfffffffffffffff4))
(constraint (= (f #xb800000000000001) #x3000000000000000))
(constraint (= (f #xc000000000000001) #x8000000000000000))
(constraint (= (f #x5000000000000001) #x0000000000000000))
(constraint (= (f #x0800000000000001) #x0000000000000000))
(constraint (= (f #xd800000000000001) #x9000000000000000))
(constraint (= (f #xfffffffffffffff9) #xfffffffffffffff0))
(constraint (= (f #xfffffffffffffffb) #xfffffffffffffffb))
(constraint (= (f #xc99c4f7b6b0f1223) #x81180e72420e0002))
(constraint (= (f #x9dbfd92dad81db12) #x3b7fb25b5b03b624))
(constraint (= (f #x9d27541f506ba656) #x3a4ea83ea0d74cac))
(constraint (= (f #xad2dc906fc4dcd77) #x08098004f8098866))
(constraint (= (f #x6a39d7f941a76a7b) #x403187f001064072))
(constraint (= (f #xbabb56831688111b) #x3032040204000012))
(constraint (= (f #x59abb7cb73a84db7) #x1103278263000926))
(constraint (= (f #xc5b36806c1daa1b5) #x8122400481900120))
(constraint (= (f #x5a75709ff0990853) #x1060601fe0100002))
(constraint (= (f #xe5a74cee5a90aef3) #xc10608cc10000ce2))
(constraint (= (f #xfffffffffffffffb) #xfffffffffffffffb))
(constraint (= (f #xfffffffffffffffa) #xfffffffffffffff4))
(constraint (= (f #xfffffffffffffff9) #xfffffffffffffff0))
(constraint (= (f #x1000000000000001) #x0000000000000000))
(check-synth)
